computational_data/real_data/solutions/iris_trial_019_lex.sol
Optimal - objective value 5.86666800
      0 r_0                         0                       1
      1 r_1                         1                       1
      2 r_2                         0                0.966667
      3 r_3                         0                0.966667
      4 r_4                         1                0.966667
      5 r_5                         0                       1
      6 r_6                         0                       1
      7 r_7                         0                       1
      8 r_8                         1                0.966667
      9 r_9                         0                       1
     10 r_10                        0                       1
     11 r_11                        0                       1
     12 r_12                        0                       1
     13 r_13                        0                       1
     14 r_14                        0                       1
     15 r_15                        0                       1
     16 r_16                        0                       1
     17 r_17                        0                       1
     18 b_0                         0                       1
     19 b_1                         0                       1
     20 b_2                         1                0.966667
     21 b_3                         1                0.966667
     22 b_4                         0                0.966667
     23 b_5                         1                       1
     24 b_6                         0                       1
     25 b_7                         0                       1
     26 b_8                         0                0.966667
     27 b_9                         0                       1
     28 b_10                        0                       1
     29 b_11                        0                       1
     30 b_12                        0                       1
     31 b_13                        0                       1
     32 b_14                        0                       1
     33 b_15                        0                       1
     34 b_16                        0                       1
     35 b_17                        0                       1
