computational_data/real_data/logs/iris_trial_019_lex.log
Welcome to the CBC MILP Solver 
Version: 2.10.12 
Build Date: Aug 20 2024 

command line - /opt/homebrew/bin/cbc computational_data/real_data/lp/iris_trial_019_lex.lp seconds 10.0 solve solu computational_data/real_data/solutions/iris_trial_019_lex.sol (default strategy 1)
 CoinLpIO::readLp(): Maximization problem reformulated as minimization
Coin0009I Switching back to maximization to get correct duals etc
seconds was changed from 1e+100 to 10
Continuous objective value is 5.91111 - 0.00 seconds
Cgl0003I 0 fixed, 0 tightened bounds, 184 strengthened rows, 8 substitutions
Cgl0003I 0 fixed, 0 tightened bounds, 159 strengthened rows, 0 substitutions
Cgl0003I 0 fixed, 0 tightened bounds, 156 strengthened rows, 0 substitutions
Cgl0003I 0 fixed, 0 tightened bounds, 144 strengthened rows, 0 substitutions
Cgl0003I 0 fixed, 0 tightened bounds, 137 strengthened rows, 0 substitutions
Cgl0003I 0 fixed, 0 tightened bounds, 127 strengthened rows, 0 substitutions
Cgl0003I 0 fixed, 0 tightened bounds, 116 strengthened rows, 0 substitutions
Cgl0003I 0 fixed, 0 tightened bounds, 108 strengthened rows, 0 substitutions
Cgl0003I 0 fixed, 0 tightened bounds, 99 strengthened rows, 0 substitutions
Cgl0004I processed model has 143 rows, 28 columns (28 integer (28 of which binary)) and 1572 elements
Cutoff increment increased from 1e-05 to 0.9999
Cbc0038I Initial state - 0 integers unsatisfied sum - 0
Cbc0038I Solution found of 5.86667
Cbc0038I Before mini branch and bound, 28 integers at bound fixed and 0 continuous
Cbc0038I Mini branch and bound did not improve solution (0.02 seconds)
Cbc0038I After 0.02 seconds - Feasibility pump exiting with objective of 5.86667 - took 0.00 seconds
Cbc0012I Integer solution of 5.866668 found by feasibility pump after 0 iterations and 0 nodes (0.02 seconds)
Cbc0001I Search completed - best objective 5.866668000000001, took 0 iterations and 0 nodes (0.02 seconds)
Cbc0035I Maximum depth 0, 0 variables fixed on reduced cost
Cuts at root node changed objective from 5.86667 to 5.86667
Probing was tried 0 times and created 0 cuts of which 0 were active after adding rounds of cuts (0.000 seconds)
Gomory was tried 0 times and created 0 cuts of which 0 were active after adding rounds of cuts (0.000 seconds)
Knapsack was tried 0 times and created 0 cuts of which 0 were active after adding rounds of cuts (0.000 seconds)
Clique was tried 0 times and created 0 cuts of which 0 were active after adding rounds of cuts (0.000 seconds)
MixedIntegerRounding2 was tried 0 times and created 0 cuts of which 0 were active after adding rounds of cuts (0.000 seconds)
FlowCover was tried 0 times and created 0 cuts of which 0 were active after adding rounds of cuts (0.000 seconds)
TwoMirCuts was tried 0 times and created 0 cuts of which 0 were active after adding rounds of cuts (0.000 seconds)
ZeroHalf was tried 0 times and created 0 cuts of which 0 were active after adding rounds of cuts (0.000 seconds)

Result - Optimal solution found

Objective value:                5.86666800
Enumerated nodes:               0
Total iterations:               0
Time (CPU seconds):             0.02
Time (Wallclock seconds):       0.02

Total time (CPU seconds):       0.02   (Wallclock seconds):       0.02

